(set-logic QF_FP)
(set-info :source |Random FP created by PyMPF|)
(set-info :category random)
(set-info :status unsat)
(declare-const x Float32)
(assert (= x ((_ to_fp 8 24) #x007FFFFF)))
(declare-const y Float32)
(assert (= y (fp #b1 #b11101000 #b11011001010111000100100)))
(declare-const z Float32)
(assert (= z ((_ to_fp 8 24) #x80000001)))
(declare-const result Float32)
(assert (= result (fp.fma RNA x y z)))
(assert (not (= result (fp #b1 #b01101010 #b11011001010111000100010))))
(check-sat)
(exit)
